200
100
100
99
98
98
98
97
96
96
95
95
95
94
92
91
91
90
90
89
89
89
87
87
86
86
86
86
86
84
84
83
83
83
82
82
82
82
81
79
79
78
77
77
76
76
76
76
76
76
76
76
76
76
75
74
73
72
72
71
69
69
67
66
66
66
65
65
64
64
63
63
63
63
62
60
60
60
59
59
57
56
56
55
54
54
54
54
54
53
52
52
52
51
51
51
50
48
48
47
47
46
45
45
45
45
45
42
42
41
41
41
40
40
39
39
38
38
37
37
37
36
35
35
35
34
34
34
34
31
30
30
30
29
29
29
29
29
29
28
28
28
28
28
26
26
26
25
25
25
24
24
24
23
22
22
22
22
21
21
21
21
21
20
19
19
19
18
18
18
18
18
17
17
16
16
16
16
15
14
14
14
13
13
12
12
11
10
10
9
8
8
8
7
7
6
6
5
4
4
3
2
